NAME : EIL101A
TYPE : PDTSP
DIMENSION : 101
EDGE_WEIGHT_TYPE : EUC_2D
NODE_COORD_SECTION
1 41 49
2 35 17
3 55 45
4 55 20
5 15 30
6 25 30
7 20 50
8 10 43
9 55 60
10 30 60
11 20 65
12 50 35
13 30 25
14 15 10
15 30 5
16 10 20
17 5 30
18 20 40
19 15 60
20 45 65
21 45 20
22 45 10
23 55 5
24 65 35
25 65 20
26 45 30
27 35 40
28 41 37
29 64 42
30 40 60
31 31 52
32 35 69
33 53 52
34 65 55
35 63 65
36 2 60
37 20 20
38 5 5
39 60 12
40 40 25
41 42 7
42 24 12
43 23 3
44 11 14
45 6 38
46 2 48
47 8 56
48 13 52
49 6 68
50 47 47
51 49 58
52 27 43
53 37 31
54 57 29
55 63 23
56 53 12
57 32 12
58 36 26
59 21 24
60 17 34
61 12 24
62 24 58
63 27 69
64 15 77
65 62 77
66 49 73
67 67 5
68 56 39
69 37 47
70 37 56
71 57 68
72 47 16
73 44 17
74 46 13
75 49 11
76 49 42
77 53 43
78 61 52
79 57 48
80 56 37
81 55 54
82 15 47
83 14 37
84 11 31
85 16 22
86 4 18
87 28 18
88 26 52
89 26 35
90 31 67
91 15 19
92 22 22
93 18 24
94 26 27
95 25 24
96 22 27
97 25 21
98 19 21
99 20 26
100 18 18
101 35 35
PICKUP_AND_DELIVERY_SECTION
1 0 0 0 0 0 0
2 0 0 0 0 73 0
3 0 0 0 0 0 80
4 0 0 0 0 39 0
5 0 0 0 0 84 0
6 0 0 0 0 91 0
7 0 0 0 0 0 88
8 0 0 0 0 60 0
9 0 0 0 0 0 33
10 0 0 0 0 52 0
11 0 0 0 0 0 63
12 0 0 0 0 101 0
13 0 0 0 0 46 0
14 0 0 0 0 16 0
15 0 0 0 0 100 0
16 0 0 0 0 0 14
17 0 0 0 0 0 45
18 0 0 0 0 0 83
19 0 0 0 0 59 0
20 0 0 0 0 0 30
21 0 0 0 0 0 74
22 0 0 0 0 75 0
23 0 0 0 0 0 67
24 0 0 0 0 68 0
25 0 0 0 0 56 0
26 0 0 0 0 53 0
27 0 0 0 0 50 0
28 0 0 0 0 76 0
29 0 0 0 0 55 0
30 0 0 0 0 20 0
31 0 0 0 0 62 0
32 0 0 0 0 0 66
33 0 0 0 0 9 0
34 0 0 0 0 81 0
35 0 0 0 0 0 48
36 0 0 0 0 0 38
37 0 0 0 0 85 0
38 0 0 0 0 36 0
39 0 0 0 0 0 4
40 0 0 0 0 0 58
41 0 0 0 0 54 0
42 0 0 0 0 0 57
43 0 0 0 0 0 44
44 0 0 0 0 43 0
45 0 0 0 0 17 0
46 0 0 0 0 0 13
47 0 0 0 0 82 0
48 0 0 0 0 35 0
49 0 0 0 0 0 64
50 0 0 0 0 0 27
51 0 0 0 0 0 70
52 0 0 0 0 0 10
53 0 0 0 0 0 26
54 0 0 0 0 0 41
55 0 0 0 0 0 29
56 0 0 0 0 0 25
57 0 0 0 0 42 0
58 0 0 0 0 40 0
59 0 0 0 0 0 19
60 0 0 0 0 0 8
61 0 0 0 0 0 86
62 0 0 0 0 0 31
63 0 0 0 0 11 0
64 0 0 0 0 49 0
65 0 0 0 0 71 0
66 0 0 0 0 32 0
67 0 0 0 0 23 0
68 0 0 0 0 0 24
69 0 0 0 0 0 90
70 0 0 0 0 51 0
71 0 0 0 0 0 65
72 0 0 0 0 0 77
73 0 0 0 0 0 2
74 0 0 0 0 21 0
75 0 0 0 0 0 22
76 0 0 0 0 0 28
77 0 0 0 0 72 0
78 0 0 0 0 79 0
79 0 0 0 0 0 78
80 0 0 0 0 3 0
81 0 0 0 0 0 34
82 0 0 0 0 0 47
83 0 0 0 0 18 0
84 0 0 0 0 0 5
85 0 0 0 0 0 37
86 0 0 0 0 61 0
87 0 0 0 0 94 0
88 0 0 0 0 7 0
89 0 0 0 0 96 0
90 0 0 0 0 69 0
91 0 0 0 0 0 6
92 0 0 0 0 97 0
93 0 0 0 0 0 98
94 0 0 0 0 0 87
95 0 0 0 0 99 0
96 0 0 0 0 0 89
97 0 0 0 0 0 92
98 0 0 0 0 93 0
99 0 0 0 0 0 95
100 0 0 0 0 0 15
101 0 0 0 0 0 12
DEPOT_SECTION
1 
-1
EOF
